32 1000
7 154
2 149
9 198
10 119
6 157
2 198
7 104
3 125
2 143
10 103
4 128
11 193
9 154
7 176
8 190
5 193
8 149
4 157
6 183
6 125
4 103
6 104
7 143
3 159
8 183
6 128
8 180
5 119
6 180
5 159
11 190
3 176
